(set-info :smt-lib-version 2.6)
(set-logic QF_FP)
(set-info :source |
Generated by: Chenqi Cui
Generated on: 2025-12-14
Generator: AutoSMTGen
Application: Generating SMT constraints with small solution spaces to make them challenging for SMT solvers
Target solver: Z3, CVC5, Bitwuzla
|)
(set-info :license "https://creativecommons.org/licenses/by/4.0/")
(set-info :category "industrial")
(set-info :status sat)
; benchmark generated from python API

(declare-fun x9 () (_ FloatingPoint 11 53))
(declare-fun x8 () (_ FloatingPoint 11 53))
(declare-fun x7 () (_ FloatingPoint 11 53))
(declare-fun x6 () (_ FloatingPoint 11 53))
(declare-fun x5 () (_ FloatingPoint 11 53))
(declare-fun x4 () (_ FloatingPoint 11 53))
(declare-fun x3 () (_ FloatingPoint 11 53))
(declare-fun x2 () (_ FloatingPoint 11 53))
(declare-fun x1 () (_ FloatingPoint 11 53))
(declare-fun x0 () (_ FloatingPoint 11 53))
(assert
 (let ((?x20 (fp.add roundNearestTiesToEven (fp.mul roundNearestTiesToEven (fp #b1 #b10000000101 #x0af17650e9899) x0) (fp.mul roundNearestTiesToEven (fp #b1 #b10000000011 #x081b2597005ba) x1))))
 (let ((?x23 (fp.add roundNearestTiesToEven ?x20 (fp.mul roundNearestTiesToEven (fp #b0 #b10000000100 #x310e602b94573) x2))))
 (let ((?x26 (fp.add roundNearestTiesToEven ?x23 (fp.mul roundNearestTiesToEven (fp #b1 #b10000000011 #xfa796faf7fc7c) x3))))
 (let ((?x29 (fp.add roundNearestTiesToEven ?x26 (fp.mul roundNearestTiesToEven (fp #b0 #b10000000101 #x091e0707fc8cb) x4))))
 (let ((?x32 (fp.add roundNearestTiesToEven ?x29 (fp.mul roundNearestTiesToEven (fp #b1 #b10000000011 #x7f26000af04bb) x5))))
 (let ((?x35 (fp.add roundNearestTiesToEven ?x32 (fp.mul roundNearestTiesToEven (fp #b0 #b10000000101 #x52059c0ea65ab) x6))))
 (let ((?x38 (fp.add roundNearestTiesToEven ?x35 (fp.mul roundNearestTiesToEven (fp #b1 #b10000000100 #xaf6d9123d384d) x7))))
 (let ((?x41 (fp.add roundNearestTiesToEven ?x38 (fp.mul roundNearestTiesToEven (fp #b1 #b10000000011 #x584d8348b52f0) x8))))
 (let ((?x44 (fp.add roundNearestTiesToEven ?x41 (fp.mul roundNearestTiesToEven (fp #b0 #b10000000100 #x5ddba6d7425be) x9))))
 (fp.leq ?x44 (fp #b1 #b10000000100 #x8a64a695e04fd))))))))))))
(assert
 (let ((?x68 (fp.add roundNearestTiesToEven (fp.mul roundNearestTiesToEven (fp #b1 #b10000000001 #x6a8864bf67bae) x0) (fp.mul roundNearestTiesToEven (fp #b0 #b10000000010 #x80351a8fbede4) x1))))
 (let ((?x71 (fp.add roundNearestTiesToEven ?x68 (fp.mul roundNearestTiesToEven (fp #b1 #b10000000100 #xcd17debe0981b) x2))))
 (let ((?x74 (fp.add roundNearestTiesToEven ?x71 (fp.mul roundNearestTiesToEven (fp #b0 #b10000000101 #x77bbb15dc7437) x3))))
 (let ((?x77 (fp.add roundNearestTiesToEven ?x74 (fp.mul roundNearestTiesToEven (fp #b0 #b10000000100 #x3272a2bed1d4f) x4))))
 (let ((?x80 (fp.add roundNearestTiesToEven ?x77 (fp.mul roundNearestTiesToEven (fp #b0 #b10000000100 #xac02274fa2c36) x5))))
 (let ((?x83 (fp.add roundNearestTiesToEven ?x80 (fp.mul roundNearestTiesToEven (fp #b1 #b10000000011 #x99d763ddf0d12) x6))))
 (let ((?x86 (fp.add roundNearestTiesToEven ?x83 (fp.mul roundNearestTiesToEven (fp #b0 #b10000000101 #x4a93a2d851ebe) x7))))
 (let ((?x89 (fp.add roundNearestTiesToEven ?x86 (fp.mul roundNearestTiesToEven (fp #b1 #b10000000100 #x37d3022360495) x8))))
 (let ((?x92 (fp.add roundNearestTiesToEven ?x89 (fp.mul roundNearestTiesToEven (fp #b1 #b10000000011 #x366a39027c6a4) x9))))
 (fp.leq ?x92 (fp #b1 #b10000000011 #x9a9a08e53f0f1))))))))))))
(assert
 (let ((?x99 (fp.add roundNearestTiesToEven (fp.mul roundNearestTiesToEven (fp #b1 #b10000000101 #x06d6fa728bedf) x0) (fp.mul roundNearestTiesToEven (fp #b0 #b10000000011 #x1267d741e1e98) x1))))
 (let ((?x102 (fp.add roundNearestTiesToEven ?x99 (fp.mul roundNearestTiesToEven (fp #b0 #b10000000011 #xaa766c9652df3) x2))))
 (let ((?x105 (fp.add roundNearestTiesToEven ?x102 (fp.mul roundNearestTiesToEven (fp #b0 #b10000000101 #x5c6bd022cdf8a) x3))))
 (let ((?x108 (fp.add roundNearestTiesToEven ?x105 (fp.mul roundNearestTiesToEven (fp #b0 #b10000000100 #x11be7be8358ef) x4))))
 (let ((?x111 (fp.add roundNearestTiesToEven ?x108 (fp.mul roundNearestTiesToEven (fp #b1 #b10000000100 #xf36cf223315f6) x5))))
 (let ((?x114 (fp.add roundNearestTiesToEven ?x111 (fp.mul roundNearestTiesToEven (fp #b0 #b10000000100 #xb74927d1876e4) x6))))
 (let ((?x117 (fp.add roundNearestTiesToEven ?x114 (fp.mul roundNearestTiesToEven (fp #b1 #b10000000100 #x4872343fa194e) x7))))
 (let ((?x120 (fp.add roundNearestTiesToEven ?x117 (fp.mul roundNearestTiesToEven (fp #b1 #b10000000101 #x375898dd84624) x8))))
 (let ((?x123 (fp.add roundNearestTiesToEven ?x120 (fp.mul roundNearestTiesToEven (fp #b0 #b10000000000 #xb3540ac1d5216) x9))))
 (fp.leq ?x123 (fp #b0 #b10000000100 #xf345c30dc5d4b))))))))))))
(assert
 (let ((?x130 (fp.add roundNearestTiesToEven (fp.mul roundNearestTiesToEven (fp #b0 #b10000000100 #xab631689cefbc) x0) (fp.mul roundNearestTiesToEven (fp #b0 #b10000000011 #x6758750936c17) x1))))
 (let ((?x133 (fp.add roundNearestTiesToEven ?x130 (fp.mul roundNearestTiesToEven (fp #b1 #b10000000100 #x9f04b3d9dd1f5) x2))))
 (let ((?x136 (fp.add roundNearestTiesToEven ?x133 (fp.mul roundNearestTiesToEven (fp #b0 #b10000000100 #x53a1be3ae775e) x3))))
 (let ((?x139 (fp.add roundNearestTiesToEven ?x136 (fp.mul roundNearestTiesToEven (fp #b1 #b10000000011 #x096fadf0b92eb) x4))))
 (let ((?x142 (fp.add roundNearestTiesToEven ?x139 (fp.mul roundNearestTiesToEven (fp #b1 #b10000000101 #x5a13738834448) x5))))
 (let ((?x145 (fp.add roundNearestTiesToEven ?x142 (fp.mul roundNearestTiesToEven (fp #b0 #b10000000101 #x50cd14e2ecb2e) x6))))
 (let ((?x148 (fp.add roundNearestTiesToEven ?x145 (fp.mul roundNearestTiesToEven (fp #b0 #b10000000101 #x030a7f9a9a8e7) x7))))
 (let ((?x151 (fp.add roundNearestTiesToEven ?x148 (fp.mul roundNearestTiesToEven (fp #b0 #b10000000101 #x472deb1d2aed3) x8))))
 (let ((?x154 (fp.add roundNearestTiesToEven ?x151 (fp.mul roundNearestTiesToEven (fp #b0 #b10000000101 #x44b39ca0e3e7e) x9))))
 (fp.leq ?x154 (fp #b1 #b10000000100 #xf5819bd4f813c))))))))))))
(assert
 (let ((?x161 (fp.add roundNearestTiesToEven (fp.mul roundNearestTiesToEven (fp #b0 #b10000000101 #x9b9a1c3d3d592) x0) (fp.mul roundNearestTiesToEven (fp #b0 #b10000000101 #x0aa4f6da37684) x1))))
 (let ((?x164 (fp.add roundNearestTiesToEven ?x161 (fp.mul roundNearestTiesToEven (fp #b1 #b10000000101 #x4051277e07435) x2))))
 (let ((?x167 (fp.add roundNearestTiesToEven ?x164 (fp.mul roundNearestTiesToEven (fp #b1 #b10000000101 #x53f34bab90b15) x3))))
 (let ((?x170 (fp.add roundNearestTiesToEven ?x167 (fp.mul roundNearestTiesToEven (fp #b1 #b10000000100 #x8cb8eba29d174) x4))))
 (let ((?x173 (fp.add roundNearestTiesToEven ?x170 (fp.mul roundNearestTiesToEven (fp #b0 #b10000000101 #x57b9f0613ea15) x5))))
 (let ((?x176 (fp.add roundNearestTiesToEven ?x173 (fp.mul roundNearestTiesToEven (fp #b1 #b10000000011 #xde043dbba6118) x6))))
 (let ((?x179 (fp.add roundNearestTiesToEven ?x176 (fp.mul roundNearestTiesToEven (fp #b1 #b10000000101 #x5f1601ee9b94b) x7))))
 (let ((?x182 (fp.add roundNearestTiesToEven ?x179 (fp.mul roundNearestTiesToEven (fp #b1 #b10000000101 #x38ef46fc0399a) x8))))
 (let ((?x185 (fp.add roundNearestTiesToEven ?x182 (fp.mul roundNearestTiesToEven (fp #b1 #b10000000011 #x9f081a4e4d5fd) x9))))
 (fp.leq ?x185 (fp #b0 #b10000000001 #x2ce207865ef2e))))))))))))
(assert
 (let ((?x192 (fp.add roundNearestTiesToEven (fp.mul roundNearestTiesToEven (fp #b1 #b10000000100 #xf385aa63c471c) x0) (fp.mul roundNearestTiesToEven (fp #b1 #b10000000011 #xbbcd10d308d63) x1))))
 (let ((?x195 (fp.add roundNearestTiesToEven ?x192 (fp.mul roundNearestTiesToEven (fp #b0 #b01111111110 #xf6f29b4b4a3da) x2))))
 (let ((?x198 (fp.add roundNearestTiesToEven ?x195 (fp.mul roundNearestTiesToEven (fp #b0 #b10000000100 #xb008222427a8e) x3))))
 (let ((?x201 (fp.add roundNearestTiesToEven ?x198 (fp.mul roundNearestTiesToEven (fp #b0 #b10000000101 #x1fda73066456e) x4))))
 (let ((?x204 (fp.add roundNearestTiesToEven ?x201 (fp.mul roundNearestTiesToEven (fp #b1 #b10000000010 #xa15072306e1e7) x5))))
 (let ((?x207 (fp.add roundNearestTiesToEven ?x204 (fp.mul roundNearestTiesToEven (fp #b1 #b10000000100 #xcc99728bf7bc5) x6))))
 (let ((?x210 (fp.add roundNearestTiesToEven ?x207 (fp.mul roundNearestTiesToEven (fp #b0 #b10000000101 #x50e824bf15541) x7))))
 (let ((?x213 (fp.add roundNearestTiesToEven ?x210 (fp.mul roundNearestTiesToEven (fp #b1 #b10000000011 #x8b439c3549c0f) x8))))
 (let ((?x216 (fp.add roundNearestTiesToEven ?x213 (fp.mul roundNearestTiesToEven (fp #b1 #b10000000101 #x1a215a7c5c2eb) x9))))
 (fp.leq ?x216 (fp #b1 #b10000000101 #x626f379629481))))))))))))
(assert
 (let ((?x223 (fp.add roundNearestTiesToEven (fp.mul roundNearestTiesToEven (fp #b0 #b10000000101 #x5e5dd7cf71f4c) x0) (fp.mul roundNearestTiesToEven (fp #b0 #b10000000100 #xbd5c2bf7d0a60) x1))))
 (let ((?x226 (fp.add roundNearestTiesToEven ?x223 (fp.mul roundNearestTiesToEven (fp #b1 #b10000000011 #xf57e546149411) x2))))
 (let ((?x229 (fp.add roundNearestTiesToEven ?x226 (fp.mul roundNearestTiesToEven (fp #b0 #b10000000100 #x49ed7037892eb) x3))))
 (let ((?x232 (fp.add roundNearestTiesToEven ?x229 (fp.mul roundNearestTiesToEven (fp #b1 #b10000000101 #x5cd33a255d5d8) x4))))
 (let ((?x235 (fp.add roundNearestTiesToEven ?x232 (fp.mul roundNearestTiesToEven (fp #b0 #b10000000101 #x9f09fa148491d) x5))))
 (let ((?x238 (fp.add roundNearestTiesToEven ?x235 (fp.mul roundNearestTiesToEven (fp #b1 #b10000000001 #xa6a2e56a02cc2) x6))))
 (let ((?x241 (fp.add roundNearestTiesToEven ?x238 (fp.mul roundNearestTiesToEven (fp #b0 #b10000000101 #x2bbbc81c089f2) x7))))
 (let ((?x244 (fp.add roundNearestTiesToEven ?x241 (fp.mul roundNearestTiesToEven (fp #b0 #b10000000001 #x6c880d5f93029) x8))))
 (let ((?x247 (fp.add roundNearestTiesToEven ?x244 (fp.mul roundNearestTiesToEven (fp #b0 #b10000000100 #xaca4410ae6757) x9))))
 (fp.leq ?x247 (fp #b0 #b10000000101 #x77641a218dfb8))))))))))))
(assert
 (let ((?x254 (fp.add roundNearestTiesToEven (fp.mul roundNearestTiesToEven (fp #b0 #b10000000011 #x055084868c547) x0) (fp.mul roundNearestTiesToEven (fp #b1 #b10000000101 #x0c02481a02373) x1))))
 (let ((?x257 (fp.add roundNearestTiesToEven ?x254 (fp.mul roundNearestTiesToEven (fp #b1 #b10000000100 #x290634f0fbee4) x2))))
 (let ((?x260 (fp.add roundNearestTiesToEven ?x257 (fp.mul roundNearestTiesToEven (fp #b1 #b10000000100 #xdabfc1c9f000b) x3))))
 (let ((?x263 (fp.add roundNearestTiesToEven ?x260 (fp.mul roundNearestTiesToEven (fp #b1 #b10000000000 #xc15f5b9fece6c) x4))))
 (let ((?x266 (fp.add roundNearestTiesToEven ?x263 (fp.mul roundNearestTiesToEven (fp #b1 #b10000000100 #x6578dadcb32d2) x5))))
 (let ((?x269 (fp.add roundNearestTiesToEven ?x266 (fp.mul roundNearestTiesToEven (fp #b1 #b10000000011 #x4dcd7e95736fa) x6))))
 (let ((?x272 (fp.add roundNearestTiesToEven ?x269 (fp.mul roundNearestTiesToEven (fp #b1 #b10000000011 #x7ad117e6f4d9a) x7))))
 (let ((?x275 (fp.add roundNearestTiesToEven ?x272 (fp.mul roundNearestTiesToEven (fp #b0 #b10000000000 #xf6810159e1d29) x8))))
 (let ((?x278 (fp.add roundNearestTiesToEven ?x275 (fp.mul roundNearestTiesToEven (fp #b0 #b10000000001 #xcb2d5095806a0) x9))))
 (fp.leq ?x278 (fp #b0 #b10000000101 #x7e99fc8683205))))))))))))
(assert
 (let ((?x285 (fp.add roundNearestTiesToEven (fp.mul roundNearestTiesToEven (fp #b1 #b10000000100 #x2bd2067036cb0) x0) (fp.mul roundNearestTiesToEven (fp #b0 #b10000000101 #x5c27abfb126ba) x1))))
 (let ((?x288 (fp.add roundNearestTiesToEven ?x285 (fp.mul roundNearestTiesToEven (fp #b1 #b10000000101 #x219ec889876bb) x2))))
 (let ((?x291 (fp.add roundNearestTiesToEven ?x288 (fp.mul roundNearestTiesToEven (fp #b0 #b10000000011 #x4696ce005853b) x3))))
 (let ((?x294 (fp.add roundNearestTiesToEven ?x291 (fp.mul roundNearestTiesToEven (fp #b0 #b10000000011 #x3be334faa8aa7) x4))))
 (let ((?x297 (fp.add roundNearestTiesToEven ?x294 (fp.mul roundNearestTiesToEven (fp #b1 #b10000000011 #x509a74d53db7c) x5))))
 (let ((?x300 (fp.add roundNearestTiesToEven ?x297 (fp.mul roundNearestTiesToEven (fp #b0 #b10000000010 #x0c0054955b022) x6))))
 (let ((?x303 (fp.add roundNearestTiesToEven ?x300 (fp.mul roundNearestTiesToEven (fp #b0 #b10000000100 #x66e809e9a2c89) x7))))
 (let ((?x306 (fp.add roundNearestTiesToEven ?x303 (fp.mul roundNearestTiesToEven (fp #b0 #b10000000100 #xbe679fcc9f118) x8))))
 (let ((?x309 (fp.add roundNearestTiesToEven ?x306 (fp.mul roundNearestTiesToEven (fp #b0 #b10000000010 #x7d12913b7c479) x9))))
 (fp.leq ?x309 (fp #b1 #b10000000100 #x91c4ad857c262))))))))))))
(assert
 (let ((?x316 (fp.add roundNearestTiesToEven (fp.mul roundNearestTiesToEven (fp #b0 #b10000000100 #x4ad8eec09ad57) x0) (fp.mul roundNearestTiesToEven (fp #b1 #b10000000100 #x92699f9dd9f3f) x1))))
 (let ((?x319 (fp.add roundNearestTiesToEven ?x316 (fp.mul roundNearestTiesToEven (fp #b0 #b10000000100 #xf4c13a4ff8a69) x2))))
 (let ((?x322 (fp.add roundNearestTiesToEven ?x319 (fp.mul roundNearestTiesToEven (fp #b1 #b10000000100 #xd3440c1d0ce78) x3))))
 (let ((?x325 (fp.add roundNearestTiesToEven ?x322 (fp.mul roundNearestTiesToEven (fp #b1 #b10000000100 #x3848cfe911051) x4))))
 (let ((?x328 (fp.add roundNearestTiesToEven ?x325 (fp.mul roundNearestTiesToEven (fp #b0 #b10000000100 #x0bb274927a122) x5))))
 (let ((?x331 (fp.add roundNearestTiesToEven ?x328 (fp.mul roundNearestTiesToEven (fp #b1 #b10000000101 #x4c315cdd41c12) x6))))
 (let ((?x334 (fp.add roundNearestTiesToEven ?x331 (fp.mul roundNearestTiesToEven (fp #b1 #b10000000010 #xb8ccb2d3eecb8) x7))))
 (let ((?x337 (fp.add roundNearestTiesToEven ?x334 (fp.mul roundNearestTiesToEven (fp #b0 #b10000000100 #x8e942f4b43d52) x8))))
 (let ((?x340 (fp.add roundNearestTiesToEven ?x337 (fp.mul roundNearestTiesToEven (fp #b1 #b10000000101 #x0850982519c3c) x9))))
 (fp.leq ?x340 (fp #b0 #b10000000011 #xfce12eb103ae9))))))))))))
(assert
 (let ((?x347 (fp.add roundNearestTiesToEven (fp.mul roundNearestTiesToEven (fp #b0 #b10000000101 #x5d338d85e3b44) x0) (fp.mul roundNearestTiesToEven (fp #b1 #b10000000100 #x50f094864a7c0) x1))))
 (let ((?x350 (fp.add roundNearestTiesToEven ?x347 (fp.mul roundNearestTiesToEven (fp #b1 #b01111111111 #xb1b17b36db5ad) x2))))
 (let ((?x353 (fp.add roundNearestTiesToEven ?x350 (fp.mul roundNearestTiesToEven (fp #b0 #b10000000001 #xad19e4bc66bec) x3))))
 (let ((?x356 (fp.add roundNearestTiesToEven ?x353 (fp.mul roundNearestTiesToEven (fp #b1 #b10000000101 #x0e1672ac8b0a6) x4))))
 (let ((?x359 (fp.add roundNearestTiesToEven ?x356 (fp.mul roundNearestTiesToEven (fp #b1 #b10000000101 #x774e592f4d66a) x5))))
 (let ((?x362 (fp.add roundNearestTiesToEven ?x359 (fp.mul roundNearestTiesToEven (fp #b0 #b10000000101 #x6c5090691e5a8) x6))))
 (let ((?x365 (fp.add roundNearestTiesToEven ?x362 (fp.mul roundNearestTiesToEven (fp #b0 #b10000000100 #x4ed0c5d3c63c5) x7))))
 (let ((?x368 (fp.add roundNearestTiesToEven ?x365 (fp.mul roundNearestTiesToEven (fp #b0 #b10000000001 #xba1195ef6c7ed) x8))))
 (let ((?x371 (fp.add roundNearestTiesToEven ?x368 (fp.mul roundNearestTiesToEven (fp #b0 #b10000000000 #x47c2cf9c26529) x9))))
 (fp.leq ?x371 (fp #b1 #b10000000100 #xd7ed8816bd028))))))))))))
(assert
 (let ((?x378 (fp.add roundNearestTiesToEven (fp.mul roundNearestTiesToEven (fp #b0 #b10000000101 #x8ad659fbe7ec9) x0) (fp.mul roundNearestTiesToEven (fp #b0 #b10000000011 #x01840cbab3548) x1))))
(let ((?x381 (fp.add roundNearestTiesToEven ?x378 (fp.mul roundNearestTiesToEven (fp #b1 #b10000000100 #x63acc0ec13c88) x2))))
(let ((?x384 (fp.add roundNearestTiesToEven ?x381 (fp.mul roundNearestTiesToEven (fp #b1 #b10000000001 #x3b09ec2983026) x3))))
(let ((?x387 (fp.add roundNearestTiesToEven ?x384 (fp.mul roundNearestTiesToEven (fp #b0 #b10000000100 #x3afbeaa6f0ea5) x4))))
(let ((?x390 (fp.add roundNearestTiesToEven ?x387 (fp.mul roundNearestTiesToEven (fp #b0 #b10000000100 #x17f12df80ec74) x5))))
(let ((?x393 (fp.add roundNearestTiesToEven ?x390 (fp.mul roundNearestTiesToEven (fp #b0 #b10000000001 #x9a2a7472eb659) x6))))
(let ((?x396 (fp.add roundNearestTiesToEven ?x393 (fp.mul roundNearestTiesToEven (fp #b1 #b10000000100 #xa3b2affc34da3) x7))))
(let ((?x399 (fp.add roundNearestTiesToEven ?x396 (fp.mul roundNearestTiesToEven (fp #b1 #b10000000100 #xeda9ac5564a96) x8))))
(let ((?x402 (fp.add roundNearestTiesToEven ?x399 (fp.mul roundNearestTiesToEven (fp #b0 #b10000000101 #x39ec2d44a3854) x9))))
(fp.leq ?x402 (fp #b1 #b10000000011 #xc5d3caef8f84b))))))))))))
(check-sat)
(exit)
